p cnf 7230 17
-6881 -6923 6962 0
-4266 -6927 -6967 0
-4262 -6929 -6965 0
-6883 -6925 -6963 0
4266 -6968 0
4262 -6966 0
6883 -6964 0
6967 6968 0
6965 6966 0
6963 6964 0
6927 -6968 0
6929 -6966 0
6925 -6964 0
-6961 -6962 0
6935 -6970 0
6893 -6970 0
6961 6962 0
